param set_len = 18;
param target_sum = 9969122;
param values := [0] 427223 [1] 1231193 [2] 1255535 [3] 1134990 [4] 958678 [5] 1624877 [6] 1860054 [7] 1347822 [8] 696573 [9] 1674213 [10] 2061935 [11] 1539009 [12] 1554092 [13] 1261645 [14] 45648 [15] 1406833 [16] 514620 [17] 203589 ;
